Test: fpga10_11_uns_rcr.cnf
Options: 
WARNING: for repeatability, setting FPU to use double precision
============================[ Problem Statistics ]=============================
|                                                                             |
|  Number of symmetries:           38                                         |
|  Number of invertingSyms:         0                                         |
|  Number of variables:           220                                         |
|  Number of clauses:            1122                                         |
|  Parse time:                   0.00 s                                       |
|                                                                             |
============================[ Search Statistics ]==============================
| Conflicts |          ORIGINAL         |          LEARNT          | Progress |
|           |    Vars  Clauses Literals |    Limit  Clauses Lit/Cl |          |
===============================================================================
|       100 |     220     1122     2420 |      411      120     45 |  0.002 % |
|       250 |     220     1122     2420 |      452      289     48 |  0.002 % |
|       475 |     220     1122     2420 |      497      338     38 |  0.002 % |
|       812 |     220     1122     2420 |      547      348     33 |  0.002 % |
|      1318 |     220     1122     2420 |      602      473     34 |  0.002 % |
|      2077 |     220     1122     2420 |      662      600     34 |  0.002 % |
|      3216 |     220     1122     2420 |      728      568     30 |  0.002 % |
===============================================================================
restarts              : 25
conflicts             : 4662           (55497 /sec)
symconflicts          : 600            (7142 /sec)
decisions             : 6888           (0.00 % random) (81995 /sec)
propagations          : 84467          (1005500 /sec)
sympropagations       : 3488           (41521 /sec)
conflict literals     : 172220         (7.23 % deleted)
literals     : 172220         (7.23 % deleted)

HEURISTIC USAGES
random                : 0           
activity w/ lookahead : 0           
activity no lookahead : 0           
original sp           : 6888        
sym count             : 0           

Memory used           : 6.00 MB
CPU time              : 0.084005 s

UNSATISFIABLE
